NAME /Users/henri/Research/solvers/instances/idol-instances/robust/collection/spp_dkp_Lefebvre_et_al_2026/shortest_path_3_2/uncertainty_sets/discrete_knapsack
ROWS
 N  OBJ
 L  primal_lower
COLUMNS
    MARKER    'MARKER'                 'INTORG'
    y[0,1]     OBJ        0
    y[0,1]     primal_lower -10.71
    y[0,2]     OBJ        0
    y[0,2]     primal_lower -1.34
    y[1,0]     OBJ        0
    y[1,0]     primal_lower -9.56
    y[1,2]     OBJ        0
    y[1,2]     primal_lower -4.63
    y[2,0]     OBJ        0
    y[2,0]     primal_lower -4.61
    y[2,1]     OBJ        0
    y[2,1]     primal_lower -7.82
    u[0,1]     OBJ        0
    u[0,1]     primal_lower 77
    u[0,2]     OBJ        0
    u[0,2]     primal_lower 11
    u[1,0]     OBJ        0
    u[1,0]     primal_lower 77
    u[1,2]     OBJ        0
    u[1,2]     primal_lower 60
    u[2,0]     OBJ        0
    u[2,0]     primal_lower 43
    u[2,1]     OBJ        0
    u[2,1]     primal_lower 49
    MARKER    'MARKER'                 'INTEND'
RHS
    RHS       primal_lower 77
BOUNDS
 LI BND       y[0,1]     0
 UI BND       y[0,1]     1
 LI BND       y[0,2]     0
 UI BND       y[0,2]     1
 LI BND       y[1,0]     0
 UI BND       y[1,0]     1
 LI BND       y[1,2]     0
 UI BND       y[1,2]     1
 LI BND       y[2,0]     0
 UI BND       y[2,0]     1
 LI BND       y[2,1]     0
 UI BND       y[2,1]     1
 LI BND       u[0,1]     0
 UI BND       u[0,1]     1
 LI BND       u[0,2]     0
 UI BND       u[0,2]     1
 LI BND       u[1,0]     0
 UI BND       u[1,0]     1
 LI BND       u[1,2]     0
 UI BND       u[1,2]     1
 LI BND       u[2,0]     0
 UI BND       u[2,0]     1
 LI BND       u[2,1]     0
 UI BND       u[2,1]     1
ENDATA
